p cnf 79 232
c t mc
1 2 -3 0
-1 -2 -3 0
1 -2 3 0
-1 2 3 0
-8 -6 0
-8 -7 0
6 7 8 0
-10 8 0
-10 9 0
-8 -9 10 0
12 -10 0
12 11 0
10 -11 -12 0
-13 -5 0
-13 -12 0
5 12 13 0
4 -13 -14 0
-4 13 -14 0
4 13 14 0
-4 -13 14 0
-15 16 -17 0
15 -16 -17 0
-15 -16 17 0
15 16 17 0
-19 -9 0
-19 -18 0
9 18 19 0
20 17 0
20 19 0
-17 -19 -20 0
-14 20 -21 0
14 -20 -21 0
-14 -20 21 0
14 20 21 0
-23 -22 0
-23 6 0
22 -6 23 0
9 -25 -26 0
-9 25 -26 0
9 25 26 0
-9 -25 26 0
27 10 0
27 -4 0
-10 4 -27 0
26 27 -28 0
-26 -27 -28 0
26 -27 28 0
-26 27 28 0
29 24 0
29 28 0
-24 -28 -29 0
30 -23 0
30 29 0
23 -29 -30 0
-21 30 -31 0
21 -30 -31 0
-21 -30 31 0
21 30 31 0
-24 32 0
24 32 0
-33 31 0
-33 32 0
-31 -32 33 0
34 3 0
34 33 0
-3 -33 -34 0
36 -35 0
36 -7 0
35 7 -36 0
-1 -11 -37 0
1 11 -37 0
-1 11 37 0
1 -11 37 0
38 -37 0
38 -7 0
37 7 -38 0
-39 -38 0
-39 25 0
38 -25 39 0
-19 40 -41 0
19 -40 -41 0
-19 -40 41 0
19 40 41 0
-39 -41 -42 0
39 41 -42 0
-39 41 42 0
39 -41 42 0
1 -43 -44 0
-1 43 -44 0
1 43 44 0
-1 -43 44 0
-42 44 -45 0
42 -44 -45 0
-42 -44 45 0
42 44 45 0
45 44 -46 0
-45 -44 -46 0
45 -44 46 0
-45 44 46 0
-47 -36 0
-47 46 0
36 -46 47 0
-48 -49 0
48 -49 0
49 48 -50 0
-49 -48 -50 0
49 -48 50 0
-49 48 50 0
-7 37 -51 0
7 -37 -51 0
-7 -37 51 0
7 37 51 0
48 6 -52 0
-48 -6 -52 0
48 -6 52 0
-48 6 52 0
53 -51 0
53 -52 0
51 52 -53 0
55 -52 0
55 54 0
52 -54 -55 0
53 -55 -56 0
-53 55 -56 0
53 55 56 0
-53 -55 56 0
57 50 0
57 56 0
-50 -56 -57 0
58 -47 0
58 57 0
47 -57 -58 0
35 -10 -60 0
-35 10 -60 0
35 10 60 0
-35 -10 60 0
59 60 -61 0
-59 -60 -61 0
59 -60 61 0
-59 60 61 0
40 24 -62 0
-40 -24 -62 0
40 -24 62 0
-40 24 62 0
63 62 0
63 52 0
-62 -52 -63 0
64 61 0
64 63 0
-61 -63 -64 0
65 58 0
65 64 0
-58 -64 -65 0
66 -34 0
66 -65 0
34 65 -66 0
-67 -41 0
-67 12 0
41 -12 67 0
68 -41 0
68 -12 0
41 12 -68 0
-69 67 0
-69 68 0
-67 -68 69 0
-41 35 -70 0
41 -35 -70 0
-41 -35 70 0
41 35 70 0
-71 5 0
-71 70 0
-5 -70 71 0
-72 12 0
-72 -16 0
-12 16 72 0
71 72 -73 0
-71 -72 -73 0
71 -72 73 0
-71 72 73 0
74 7 0
74 6 0
-7 -6 -74 0
75 54 0
75 -15 0
-54 15 -75 0
76 -74 0
76 75 0
74 -75 -76 0
-73 -76 -77 0
73 76 -77 0
-73 76 77 0
73 -76 77 0
78 69 0
78 -77 0
-69 77 -78 0
-66 78 -79 0
66 -78 -79 0
-66 -78 79 0
66 78 79 0
-21 55 56 63 -72 0
53 40 59 -18 -51 -26 0
74 70 58 0
59 -46 3 -38 66 -8 45 -31 0
-53 -23 58 32 -56 -63 -41 0
32 -31 -62 16 12 41 -25 -36 0
21 14 52 34 4 39 -63 9 -19 0
-48 -19 40 0
14 -45 -29 -42 63 -50 -2 -53 18 0
24 -63 38 -59 -8 12 -15 -71 45 16 0
25 -63 67 0
38 -51 -45 61 25 -32 0
-25 -8 61 -35 76 10 0
57 55 -11 -24 48 1 0
55 -33 10 14 0
61 11 18 17 -53 -5 -77 30 0
-6 -38 -9 33 -10 72 30 29 0
50 -9 4 0
-66 -76 32 0
-64 -55 42 74 43 -75 -73 0
9 5 -30 18 0
40 68 13 -70 31 0
33 67 -77 -75 -31 60 0
-79 61 -63 0
32 -37 -59 61 58 62 48 0
1 46 -24 0
31 -72 -23 55 0
-25 32 46 2 54 0
-65 -19 14 26 55 54 22 56 -69 1 0
-68 32 67 -47 59 -49 -26 70 76 69 0
-43 29 -44 10 56 -30 -47 -33 9 39 0
-78 8 19 35 0
79 0
